AES/1_4_4/ssaes_r1-20_c4_rw1_e4_f0_k1-20_aes_canon_box_aes_mc_bidirectional/ExperimentMinisat_r2_k9cnf_2011-11-18-120523/Result
WARNING: for repeatability, setting FPU to use double precision
============================[ Problem Statistics ]=============================
|                                                                             |
|  Number of variables:           352                                         |
|  Number of clauses:            1898                                         |
|  Parse time:                   0.00 s                                       |
|  Eliminated clauses:           0.00 Mb                                      |
|  Simplification time:          0.00 s                                       |
|                                                                             |
=============================[ Search Statistics ]==============================
| Conflicts  |          ORIGINAL         |          LEARNT          | Progress |
|            |    Vars  Clauses Literals |    Limit  Clauses Lit/Cl |          |
================================================================================
|        100 |     254     1654     5110 |      606      100     15 | 11.379 % |
===============================================================================
restarts              : 3
conflicts             : 245            (30633 /sec)
decisions             : 300            (0.00 % random) (37509 /sec)
propagations          : 26083          (3261190 /sec)
conflict literals     : 2908           (53.29 % deleted)
Memory used           : 8.00 MB
CPU time              : 0.007998 s

SATISFIABLE
